10J3M/DAT/10J3MNNL-9.dat
10 3
20.8773 20.8773
32.088 32.088
19.2681 19.2681
22.127 22.127
24.6964 24.6964
31.4415 31.4415
26.4057 26.4057
19.7668 19.7668
27.1418 27.1418
30.9589 30.9589
254.7715