10J3M/SOL/10J3MNNL-9.sol
solution status: optimal solution found
objective value:                     77.0618333333333
x#1#1                               0.209312686723937 	(obj:0)
x#1#2                               0.790687313276063 	(obj:0)
x#2#3                                               1 	(obj:0)
x#3#3                                               1 	(obj:0)
x#4#1                                               1 	(obj:0)
x#5#2                               0.305423874599932 	(obj:0)
x#5#3                               0.694576125400068 	(obj:0)
x#6#1                                               1 	(obj:0)
x#7#2                                               1 	(obj:0)
x#8#1                                               1 	(obj:0)
x#9#1                                               1 	(obj:0)
x#10#2                                              1 	(obj:0)
z                                    77.0618333333333 	(obj:1)
